<number of tasks>
35

<cycle time>
69

<task times>
1 29
2 3
3 5
4 22
5 6
6 14
7 2
8 5
9 22
10 30
11 23
12 30
13 23
14 2
15 19
16 29
17 2
18 2
19 19
20 29
21 6
22 10
23 16
24 23
25 5
26 5
27 5
28 40
29 2
30 5
31 5
32 1
33 40
34 2
35 2

<task process alternatives>
1: 24,15 ; 35,8
2: 3,15 ; 4,8
3: 4,15 ; 6,8
4: 18,15 ; 27,8
5: 5,15 ; 8,8
6: 12,15 ; 17,8
7: 2,15 ; 3,8
8: 4,15 ; 6,8
9: 18,15 ; 27,8
10: 24,15 ; 36,8
11: 19,15 ; 28,8
12: 24,15 ; 36,8
13: 19,15 ; 28,8
14: 2,15 ; 3,8
15: 16,15 ; 23,8
16: 24,15 ; 35,8
17: 2,15 ; 3,8
18: 2,15 ; 3,8
19: 16,15 ; 23,8
20: 24,15 ; 35,8
21: 5,15 ; 8,8
22: 8,15 ; 12,8
23: 13,15 ; 20,8
24: 19,15 ; 28,8
25: 4,15 ; 6,8
26: 4,15 ; 6,8
27: 4,15 ; 6,8
28: 32,15 ; 48,8
29: 2,15 ; 3,8
30: 4,15 ; 6,8
31: 4,15 ; 6,8
32: 1,15 ; 2,8
33: 32,15 ; 48,8
34: 2,15 ; 3,8
35: 2,15 ; 3,8

<incompatible tasks>
26,11
20,33
16,33
7,20
3,15

<precedence relations>
24,27
13,33
3,4
26,27
21,22
22,23
21,25
31,32
8,9
27,28
25,26
1,12
27,34
6,8
32,33
33,35
18,19
5,6
21,30
4,11
12,18
14,15
23,24
1,2
9,13
17,20
1,5
10,14
19,20
28,29
27,33
11,28
6,7
15,16
16,21
13,28
7,18
20,21
2,3
1,10
30,31
11,33
7,14

<incompatible tasks>
1,4
2,14
2,19
2,33
6,9
6,27
8,13
8,20
11,15
12,32
12,35
13,16
14,27
15,24
15,32
17,25
17,35
18,25
19,25
19,32
23,29
26,34
27,32
27,34

<optimal SALBP-1 value>
8

<rand seed>
236278236

<end>
